\* Problem: Unknown *\

Maximize
 obj: + xp_0_0 + xp_0_1 + xp_0_2 + xp_0_3 + xp_0_4 + xp_0_5 + xp_0_6
 + xp_1_0 + xp_1_1 + xp_1_2 + xp_2_0 + xp_2_1 + xp_2_2 + xp_2_3 + xp_2_4
 + xp_3_0 + xp_3_1 + xp_4_0 + xp_5_0 + xp_5_1 + xp_5_2 + xp_6_0 + xp_6_1
 + xp_6_2 + xp_6_3 + xp_7_0 + xp_7_1 + xp_8_0 + xp_8_1 + xp_9_0
 + xp_10_0 + xp_10_1 + xp_11_0 + xp_11_1 + xp_11_2 + xp_11_3 + xp_12_0
 + xp_13_0 + xp_13_1 + xp_14_0 + xp_14_1 + xp_14_2 + xp_15_0 + xp_16_0
 + xp_16_1 + xp_17_0 + xp_17_1 + xp_17_2 + xp_17_3 + xp_17_4 + xp_17_5
 + xp_17_6 + xp_18_0 + xp_18_1 + xp_18_2 + xp_18_3 + xp_19_0 + xp_19_1
 + xp_19_2 + xp_19_3 + xp_19_4 + xp_19_5 + xp_20_0 + xp_20_1 + xp_20_2
 + xp_20_3 + xp_21_0 + xp_21_1 + xp_21_2 + xp_21_3 + xp_21_4 + xp_22_0
 + xp_22_1 + xp_22_2 + xp_22_3 + xp_22_4 + xp_23_0 + xp_23_1 + xp_23_2

Subject To
 r_1: 0 xp_0_0 <= 25.8704453441296
 r_2: + xp_22_3 + xp_18_2 + xp_6_3 + xp_5_2 + xp_2_3 <= 25.8070099524016
 r_3: + xp_21_3 + xp_18_3 + xp_8_1 + xp_6_2 <= 26.3893805309735
 r_4: + xp_17_1 + xp_15_0 <= 26.9620253164557
 r_5: + xp_18_0 <= 25.5089820359281
 r_6: + xp_18_1 <= 26.3893805309735
 r_7: + xp_20_3 <= 25.8704453441296
 r_8: + xp_22_2 + xp_11_2 + xp_5_1 + xp_2_2 <= 25.8070099524016
 r_9: + xp_17_5 + xp_11_1 + xp_3_1 <= 26.3893805309735
 r_10: + xp_17_6 + xp_3_0 <= 26.9620253164557
 r_11: + xp_18_1 + xp_11_3 <= 25.5089820359281
 r_12: + xp_11_0 <= 26.3893805309735
 r_13: 0 xp_0_0 <= 27.3778920308483
 r_14: + xp_21_2 + xp_14_0 + xp_0_6 + xp_0_2 <= 25.8070099524016
 r_15: + xp_21_0 + xp_19_4 <= 26.3893805309735
 r_16: + xp_22_1 + xp_21_4 + xp_19_3 + xp_14_2 + xp_0_5 + xp_0_3
 + xp_0_1 <= 26.7924528301887
 r_17: + xp_0_0 <= 25.5089820359281
 r_18: + xp_21_3 + xp_4_0 <= 25.8704453441296
 r_19: + xp_19_0 <= 25.8704453441296
 r_20: + xp_21_1 + xp_19_5 + xp_19_2 + xp_19_1 + xp_14_1 + xp_0_4
 <= 27.3778920308483
 r_21: + xp_20_1 <= 25.8070099524016
 r_22: + xp_21_2 + xp_7_1 <= 26.3893805309735
 r_23: + xp_22_3 + xp_22_2 <= 26.7924528301887
 r_24: + xp_17_3 + xp_6_3 + xp_6_1 + xp_0_6 <= 26.3893805309735
 r_25: 0 xp_0_0 <= 27.3778920308483
 r_26: + xp_18_2 + xp_0_4 + xp_0_2 <= 25.5089820359281
 r_27: + xp_11_2 <= 25.8070099524016
 r_28: + xp_19_2 + xp_10_1 <= 25.8070099524016
 r_29: + xp_20_2 <= 26.3893805309735
 r_30: + xp_2_0 <= 26.3893805309735
 r_31: + xp_18_3 + xp_17_5 + xp_8_1 + xp_6_2 + xp_3_1 + xp_2_4
 <= 26.3893805309735
 r_32: + xp_2_1 <= 27.3778920308483
 r_33: + xp_11_1 + xp_2_3 <= 26.3893805309735
 r_34: + xp_19_5 + xp_19_4 + xp_2_2 <= 26.3893805309735
 r_35: 0 xp_0_0 <= 26.7924528301887
 r_36: + xp_14_2 + xp_9_0 <= 26.7924528301887
 r_37: + xp_21_4 + xp_13_1 + xp_0_3 <= 26.3893805309735
 r_38: + xp_23_2 + xp_1_1 <= 28.7484662576687
 r_39: + xp_19_3 + xp_17_2 + xp_0_5 <= 26.9620253164557
 r_40: + xp_0_1 <= 25.5089820359281
 r_41: + xp_12_0 + xp_2_4 <= 26.3893805309735
 r_42: + xp_21_4 <= 26.3893805309735
 r_43: + xp_16_0 <= 26.3893805309735
 r_44: + xp_23_1 + xp_16_1 + xp_1_2 <= 28.7484662576687
 r_45: + xp_17_5 + xp_17_3 + xp_3_1 <= 26.9620253164557
 r_46: + xp_18_3 + xp_0_6 + xp_0_3 <= 25.5089820359281
 r_47: + xp_22_4 + xp_16_1 + xp_13_1 <= 28.7484662576687
 r_48: + xp_13_0 <= 28.7484662576687
 r_49: + xp_17_4 <= 26.9620253164557
 r_50: 0 xp_0_0 <= 25.5089820359281
 r_51: + xp_1_1 <= 26.9620253164557
 r_52: + xp_8_0 + xp_1_2 <= 26.9620253164557
 r_53: + xp_1_0 <= 26.9620253164557
 r_54: + xp_0_5 <= 25.5089820359281
 r_55: + xp_8_1 <= 26.9620253164557
 r_56: + xp_19_3 <= 26.9620253164557
 r_57: + xp_22_1 <= 25.5089820359281
 r_58: + xp_17_3 + xp_6_1 + xp_5_0 <= 25.5089820359281
 r_59: + xp_23_2 + xp_22_0 + xp_17_2 <= 25.5089820359281
 r_60: + xp_23_1 + xp_6_0 <= 25.5089820359281
 r_61: + xp_23_0 + xp_22_4 + xp_17_4 <= 25.5089820359281
 r_62: + xp_17_0 <= 25.5089820359281
 r_63: + xp_22_3 + xp_17_1 + xp_11_3 + xp_6_3 + xp_6_2 + xp_5_2
 <= 25.5089820359281
 r_64: + xp_22_2 + xp_17_6 + xp_17_5 + xp_5_1 <= 25.5089820359281
 r_65: + xp_20_1 + xp_19_2 + xp_14_1 + xp_10_1 + xp_7_1 + xp_2_1
 + xp_0_4 <= 27.3778920308483
 r_66: + xp_21_1 + xp_20_2 + xp_19_5 + xp_7_0 <= 27.3778920308483
 r_67: + xp_20_3 + xp_19_1 + xp_10_0 <= 27.3778920308483
 r_68: + xp_20_0 <= 27.3778920308483

Bounds
 0 <= xp_0_0 <= 26.5835576044094
 0 <= xp_0_1 <= 13.2917788022047
 0 <= xp_0_2 <= 6.64588940110235
 0 <= xp_0_3 <= 3.32294470055118
 0 <= xp_0_4 <= 3.32294470055118
 0 <= xp_0_5 <= 3.32294470055118
 0 <= xp_0_6 <= 3.32294470055118
 0 <= xp_1_0 <= 18.3989122008228
 0 <= xp_1_1 <= 15.0759675002717
 0 <= xp_1_2 <= 0.446047174516736
 0 <= xp_2_0 <= 23.6540694940717
 0 <= xp_2_1 <= 3.71640129076464
 0 <= xp_2_2 <= 1.18036977064039
 0 <= xp_2_3 <= 4.1098578809781
 0 <= xp_2_4 <= 0.786913180426925
 0 <= xp_3_0 <= 23.2606129038582
 0 <= xp_3_1 <= 6.64588940110235
 0 <= xp_4_0 <= 25.2434804655711
 0 <= xp_5_0 <= 16.8289869770474
 0 <= xp_5_1 <= 5.60966232568247
 0 <= xp_5_2 <= 2.80483116284124
 0 <= xp_6_0 <= 12.6217402327856
 0 <= xp_6_1 <= 5.04869609311423
 0 <= xp_6_2 <= 2.52434804655711
 0 <= xp_6_3 <= 2.52434804655711
 0 <= xp_7_0 <= 16.934168145654
 0 <= xp_7_1 <= 4.83833375590114
 0 <= xp_8_0 <= 17.3899532096157
 0 <= xp_8_1 <= 2.17374415120196
 0 <= xp_9_0 <= 18.1437515846292
 0 <= xp_10_0 <= 16.1277791863371
 0 <= xp_10_1 <= 2.01597239829214
 0 <= xp_11_0 <= 26.0537605931323
 0 <= xp_11_1 <= 13.0268802965662
 0 <= xp_11_2 <= 12.2321847796506
 0 <= xp_11_3 <= 6.11609238982528
 0 <= xp_12_0 <= 17.0393493142605
 0 <= xp_13_0 <= 12.8846931543019
 0 <= xp_13_1 <= 3.68134090122912
 0 <= xp_14_0 <= 12.2711363374304
 0 <= xp_14_1 <= 1.75301947677577
 0 <= xp_14_2 <= 1.75301947677577
 0 <= xp_15_0 <= 15.6194035380721
 0 <= xp_16_0 <= 13.3229480234959
 0 <= xp_16_1 <= 1.66536850293698
 0 <= xp_17_0 <= 26.3615117936292
 0 <= xp_17_1 <= 3.10089888977095
 0 <= xp_17_2 <= 4.65134833465642
 0 <= xp_17_3 <= 3.32294470055118
 0 <= xp_17_4 <= 1.55044944488547
 0 <= xp_17_5 <= 1.55044944488547
 0 <= xp_17_6 <= 3.32294470055118
 0 <= xp_18_0 <= 22.6178424186518
 0 <= xp_18_1 <= 12.0062378317919
 0 <= xp_18_2 <= 3.32294470055118
 0 <= xp_18_3 <= 4.02026132301714
 0 <= xp_19_0 <= 27.8710541277785
 0 <= xp_19_1 <= 3.86248957010732
 0 <= xp_19_2 <= 2.57499304673821
 0 <= xp_19_3 <= 3.32294470055118
 0 <= xp_19_4 <= 2.57499304673821
 0 <= xp_19_5 <= 1.28749652336911
 0 <= xp_20_0 <= 26.8601495524492
 0 <= xp_20_1 <= 6.92248134914213
 0 <= xp_20_2 <= 2.39969109906064
 0 <= xp_20_3 <= 4.5227902500815
 0 <= xp_21_0 <= 24.972735238732
 0 <= xp_21_1 <= 5.33697151472114
 0 <= xp_21_2 <= 4.32995810763616
 0 <= xp_21_3 <= 1.00701340708498
 0 <= xp_21_4 <= 3.32294470055118
 0 <= xp_22_0 <= 21.6010911221219
 0 <= xp_22_1 <= 1.66342291881481
 0 <= xp_22_2 <= 4.98636761936599
 0 <= xp_22_3 <= 4.98636761936599
 0 <= xp_22_4 <= 4.15465615995858
 0 <= xp_23_0 <= 23.2645140409367
 0 <= xp_23_1 <= 13.2956799392832
 0 <= xp_23_2 <= 0.831711459407406

End
